
===== New CPLEX run =====
Instance: /home/yorig/tuner/mpils-tests/instances/miplib/easy/mas74.mps
Config: /scratch/yorig/mpils-results-grid-ticks-10000-divide/easy/16proc/seed-4/5_mas74_seed-4_20260429_043455/expansion/config_param_CPXPARAM_MIP_Limits_CutsFactor_4_iter_1.prm
========================

Selected objective sense:  MINIMIZE
Selected objective  name:  obj
Selected RHS        name:  rhs
Selected bound      name:  bnd
Version identifier: 22.1.2.0 | 2024-11-26 | 0edbb82fd
CPXPARAM_Threads                                 8
CPXPARAM_Parallel                                1
CPXPARAM_MIP_Cuts_Cliques                        1
CPXPARAM_MIP_Cuts_FlowCovers                     1
CPXPARAM_MIP_Cuts_Implied                        -1
CPXPARAM_MIP_Cuts_GUBCovers                      -1
CPXPARAM_MIP_Limits_GomoryCand                   10
CPXPARAM_MIP_Cuts_Gomory                         2
CPXPARAM_MIP_Cuts_PathCut                        2
CPXPARAM_MIP_Cuts_MIRCut                         -1
CPXPARAM_MIP_Cuts_Disjunctive                    2
CPXPARAM_Emphasis_MIP                            3
CPXPARAM_DetTimeLimit                            10000
CPXPARAM_MIP_Limits_CutsFactor                   4
Found incumbent of value 157344.610330 after 0.00 sec. (0.02 ticks)
Tried aggregator 1 time.
MIP Presolve eliminated 0 rows and 3 columns.
Reduced MIP has 13 rows, 148 columns, and 1682 nonzeros.
Reduced MIP has 145 binaries, 2 generals, 0 SOSs, and 0 indicators.
Presolve time = 0.00 sec. (0.84 ticks)
Probing time = 0.00 sec. (0.09 ticks)
Tried aggregator 1 time.
Detecting symmetries...
Reduced MIP has 13 rows, 148 columns, and 1682 nonzeros.
Reduced MIP has 145 binaries, 2 generals, 0 SOSs, and 0 indicators.
Presolve time = 0.00 sec. (0.79 ticks)
Probing time = 0.00 sec. (0.09 ticks)
MIP emphasis: best bound.
MIP search method: dynamic search.
Parallel mode: deterministic, using up to 8 threads.
Root relaxation solution time = 0.01 sec. (0.72 ticks)

        Nodes                                         Cuts/
   Node  Left     Objective  IInf  Best Integer    Best Bound    ItCnt     Gap

*     0+    0                       157344.6103        0.0000           100.00%
*     0+    0                        51840.4943        0.0000           100.00%
      0     0    10482.7953    12    51840.4943    10482.7953       43   79.78%
*     0+    0                        19197.4680    10482.7953            45.39%
      0     0    10526.7004    13    19197.4680      Fract: 1       51   45.17%
*     0+    0                        14901.6028    10526.7004            29.36%
      0     0    10549.2365    14    14901.6028      Fract: 1       59   29.21%
*     0+    0                        14692.2744    10549.2365            28.20%
      0     0    10553.2582    15    14692.2744      Fract: 1       65   28.17%
      0     0    10557.5476    16    14692.2744      Fract: 1       71   28.14%
      0     0    10560.8992    16    14692.2744      Fract: 1       79   28.12%
Detecting symmetries...
      0     0    10564.8486    16    14692.2744   LiftProj: 1       87   28.09%
*     0+    0                        13886.0272    10564.8486            23.92%
      0     0    10567.6171    17    13886.0272   LiftProj: 1       92   23.90%
      0     0    10568.6950    18    13886.0272   LiftProj: 1       97   23.89%
      0     0    10569.2729    19    13886.0272   LiftProj: 1      100   23.89%
      0     0    10569.3085    20    13886.0272   LiftProj: 1      102   23.89%
*     0+    0                        12915.1000    10569.3085            18.16%
*     0+    0                        12715.8924    10587.6058            16.74%
      0     0  -1.00000e+75     0    12715.8924    10587.6058      102   16.74%
Detecting symmetries...
      0     2    10569.3085    20    12715.8924    10587.6058      102   16.74%
Elapsed time = 0.84 sec. (55.02 ticks, tree = 0.02 MB, solutions = 8)
*    40+    3                        12640.3713    10587.6058            16.24%

Performing restart 1

Repeating presolve.
Tried aggregator 1 time.
MIP Presolve eliminated 0 rows and 30 columns.
Reduced MIP has 13 rows, 118 columns, and 1295 nonzeros.
Reduced MIP has 116 binaries, 1 generals, 0 SOSs, and 0 indicators.
Presolve time = 0.00 sec. (0.46 ticks)
Tried aggregator 1 time.
Reduced MIP has 13 rows, 118 columns, and 1295 nonzeros.
Reduced MIP has 116 binaries, 1 generals, 0 SOSs, and 0 indicators.
Presolve time = 0.00 sec. (0.60 ticks)
Represolve time = 0.01 sec. (2.71 ticks)
   2095     0    10571.2621    22    12640.3713   LiftProj: 1    12660   14.99%
*  2302+  122                        12464.1000    10745.7109            13.79%
*  2762+  497                        12180.1000    10745.7109            11.78%
   5966  3095    10987.3963    12    12180.1000    10839.0333    33540   11.01%
*  8517+ 5152                        12039.4680    10884.9832             9.59%
  16698 13556    11079.6177    11    12039.4680    10979.6844   106567    8.80%
  28330 24983    11244.0842    12    12039.4680    11048.1057   186487    8.23%
  37928 34061    11149.5188    11    12039.4680    11081.1858   249889    7.96%
* 38959+31645                        12015.0899    11081.1858             7.77%
  43869 39826    11173.0463    12    12015.0899    11081.1858   290175    7.77%
  49781 45717    11170.6155    12    12015.0899    11081.1858   331438    7.77%
* 51162+31645                        11978.7980    11081.1858             7.49%
  55644 50712    11276.3072    11    11978.7980    11081.1858   366327    7.49%
* 61318+56025                        11857.3713    11081.1858             6.55%
  62819 55607        cutoff          11857.3713    11084.3107   411349    6.52%

Performing restart 2

Repeating presolve.
Tried aggregator 1 time.
MIP Presolve eliminated 0 rows and 21 columns.
Reduced MIP has 13 rows, 97 columns, and 1030 nonzeros.
Reduced MIP has 95 binaries, 1 generals, 0 SOSs, and 0 indicators.
Presolve time = 0.00 sec. (0.35 ticks)
Tried aggregator 1 time.
Reduced MIP has 13 rows, 97 columns, and 1030 nonzeros.
Reduced MIP has 95 binaries, 1 generals, 0 SOSs, and 0 indicators.
Presolve time = 0.00 sec. (0.46 ticks)
Represolve time = 0.01 sec. (3.30 ticks)
  69696  5646    11007.6973    11    11857.3713    11129.3617   464497    6.14%
 114414 46358    11303.6865    11    11857.3713    11174.8930   755605    5.76%
Elapsed time = 13.31 sec. (3154.73 ticks, tree = 10.69 MB, solutions = 17)
*132172+61627                        11801.1857    11217.3125             4.95%
 160517 84342    11408.2630    12    11801.1857    11267.0111  1041122    4.53%
 207738 121798    11413.8554    10    11801.1857    11320.4426  1324041    4.07%
 255330 158744    11427.7467    12    11801.1857    11360.1059  1611042    3.74%
 303593 194938    11492.3982    12    11801.1857    11392.1560  1903207    3.47%
 351799 227752    11435.8284    12    11801.1857    11419.3280  2179962    3.24%
 400925 259971    11522.5306    10    11801.1857    11442.8340  2463291    3.04%
 449591 290546    11469.8302    11    11801.1857    11463.8660  2743234    2.86%

Clique cuts applied:  0
Cover cuts applied:  50
Flow cuts applied:  0
Flow path cuts applied:  0
Lift and project cuts applied:  8
Gomory fractional cuts applied:  3
Disjunctive cuts applied:  0
Cone linearizations applied:  0

Root node processing (before b&c):
  Real time             =    0.75 sec. (54.96 ticks)
Parallel b&c, 8 threads:
  Real time             =   39.02 sec. (9945.47 ticks)
  Sync time (average)   =   18.69 sec.
  Wait time (average)   =    0.21 sec.
                          ------------
Total (root+branch&cut) =   39.77 sec. (10000.43 ticks)
Gap: 2.82%
Upper bound: 11801.2
Lower bound: 11468.3
End of CPLEX run. Time: 39.7957 seconds
